NAME : tsp20_11.164.tour
COMMENT : Length = 164
COMMENT : Found by LKH [Keld Helsgaun]
TYPE : TOUR
DIMENSION : 20
TOUR_SECTION
1
7
13
11
15
6
16
3
12
4
19
14
10
8
5
20
2
17
9
18
-1
EOF
